NAME: ACTUAL_TOURS/amz0806
TYPE: TOUR
COMMENT: RouteID_56f6e28a-ce67-432f-8e68-41f58c327d31
DIMENSION: 118
TOUR_SECTION
69
53
82
44
46
88
104
99
85
19
94
27
89
25
106
13
58
37
42
110
26
113
59
93
56
65
41
5
23
84
50
61
116
103
8
45
38
71
28
14
72
115
109
34
118
64
101
32
7
52
36
112
15
57
60
35
1
4
54
43
95
98
33
80
96
39
51
68
49
22
86
111
63
9
48
77
79
10
114
66
67
92
81
21
55
29
18
24
70
40
78
100
6
87
16
105
107
11
3
117
97
30
47
102
31
20
90
62
83
12
91
17
76
73
2
75
108
74
-1
EOF
